70 300 125 88 48 48 90 166 6 99 160 108 27 11 155 107 28 191 160 148 39 39 57 195 124 6 151 24 138 66 136 128 87 12 167 134 59 57 51 16 155 163 123 133 173 29 191 152 171 150 100 9 189 156 155 64 113 106 39 50 171 174 130 57 137 96 142 147 152 192 163 58 